5

0   15   0   2   0
15   0   1   1   2
0   1   0   2   1
2   1   2   0   0
0   2   1   0   0

0   19   59   28   23
19   0   40   15   20
59   40   0   31   60
28   15   31   0   29
23   20   60   29   0